# Demanda 
param d:= 1 200 2 300 3 0 4 0 5 -150 6 -200 7 -150;

# Nós do grafo
set nos:= 1 2 3 4 5 6 7;

# Arcos do grafo
set arcos := (1,3) (1,4) (2,3) (2,4) (3,5) (3,6) (3,7) (4,5) (4,6) (4,7);

#     custo capacidade
param: c    u :=
1 3   425  125
1 4   560  150
2 3   510  175
2 4   600  200
3 5   470  150
3 6   505  200 
3 7   400  150
4 5   390  125
4 6   410  150
4 7   440  75;

